10
40
1434
1350
1347
1255
1163
1134
796
669
324
9
260	533
284	456
176	281
139	190
261	350
583	739
207	247
316	354
817	867
199	190
595	551
589	545
853	733
453	372
980	783
428	317
837	586
542	376
433	295
506	338
44	206
91	362
51	145
175	464
69	158
585	747
485	595
826	891
815	875
559	585
326	338
205	212
822	846
663	634
211	193
717	625
861	741
716	575
655	508
639	431
